p cnf 320 1177
c p weight -23 1 0
c p weight 23 -1 0
c p weight 27 6.12323399573676603586882014729198302312846062338790031898128063403419218957424163818359375E-17 0
c p weight -27 1 0
c p weight 28 1 0
c p weight -28 1 0
c p weight -25 1 0
c p weight 25 -1 0
c p weight -29 1 0
c p weight 29 -1 0
c p weight -31 1 0
c p weight 31 -1 0
c p weight 35 6.12323399573676603586882014729198302312846062338790031898128063403419218957424163818359375E-17 0
c p weight -35 1 0
c p weight 36 1 0
c p weight -36 1 0
c p weight -33 1 0
c p weight 33 -1 0
c p weight -37 1 0
c p weight 37 -1 0
c p weight -39 1 0
c p weight 39 -1 0
c p weight 43 6.12323399573676603586882014729198302312846062338790031898128063403419218957424163818359375E-17 0
c p weight -43 1 0
c p weight 44 1 0
c p weight -44 1 0
c p weight -41 1 0
c p weight 41 -1 0
c p weight -45 1 0
c p weight 45 -1 0
c p weight -47 1 0
c p weight 47 -1 0
c p weight -50 1 0
c p weight 50 -1 0
c p weight 54 6.12323399573676603586882014729198302312846062338790031898128063403419218957424163818359375E-17 0
c p weight -54 1 0
c p weight 55 1 0
c p weight -55 1 0
c p weight -52 1 0
c p weight 52 -1 0
c p weight -56 1 0
c p weight 56 -1 0
c p weight -58 1 0
c p weight 58 -1 0
c p weight 62 6.12323399573676603586882014729198302312846062338790031898128063403419218957424163818359375E-17 0
c p weight -62 1 0
c p weight 63 1 0
c p weight -63 1 0
c p weight -60 1 0
c p weight 60 -1 0
c p weight -64 1 0
c p weight 64 -1 0
c p weight -66 1 0
c p weight 66 -1 0
c p weight 70 6.12323399573676603586882014729198302312846062338790031898128063403419218957424163818359375E-17 0
c p weight -70 1 0
c p weight 71 1 0
c p weight -71 1 0
c p weight -68 1 0
c p weight 68 -1 0
c p weight -72 1 0
c p weight 72 -1 0
c p weight -74 1 0
c p weight 74 -1 0
c p weight -77 1 0
c p weight 77 -1 0
c p weight 81 6.12323399573676603586882014729198302312846062338790031898128063403419218957424163818359375E-17 0
c p weight -81 1 0
c p weight 82 1 0
c p weight -82 1 0
c p weight -79 1 0
c p weight 79 -1 0
c p weight -83 1 0
c p weight 83 -1 0
c p weight -85 1 0
c p weight 85 -1 0
c p weight 89 6.12323399573676603586882014729198302312846062338790031898128063403419218957424163818359375E-17 0
c p weight -89 1 0
c p weight 90 1 0
c p weight -90 1 0
c p weight -87 1 0
c p weight 87 -1 0
c p weight -91 1 0
c p weight 91 -1 0
c p weight -93 1 0
c p weight 93 -1 0
c p weight 97 6.12323399573676603586882014729198302312846062338790031898128063403419218957424163818359375E-17 0
c p weight -97 1 0
c p weight 98 1 0
c p weight -98 1 0
c p weight -95 1 0
c p weight 95 -1 0
c p weight -99 1 0
c p weight 99 -1 0
c p weight -101 1 0
c p weight 101 -1 0
c p weight 105 6.12323399573676603586882014729198302312846062338790031898128063403419218957424163818359375E-17 0
c p weight -105 1 0
c p weight 106 1 0
c p weight -106 1 0
c p weight -103 1 0
c p weight 103 -1 0
c p weight -107 1 0
c p weight 107 -1 0
c p weight -109 1 0
c p weight 109 -1 0
c p weight -112 1 0
c p weight 112 -1 0
c p weight 116 6.12323399573676603586882014729198302312846062338790031898128063403419218957424163818359375E-17 0
c p weight -116 1 0
c p weight 117 1 0
c p weight -117 1 0
c p weight -114 1 0
c p weight 114 -1 0
c p weight -118 1 0
c p weight 118 -1 0
c p weight -120 1 0
c p weight 120 -1 0
c p weight 124 6.12323399573676603586882014729198302312846062338790031898128063403419218957424163818359375E-17 0
c p weight -124 1 0
c p weight 125 1 0
c p weight -125 1 0
c p weight -122 1 0
c p weight 122 -1 0
c p weight -126 1 0
c p weight 126 -1 0
c p weight -128 1 0
c p weight 128 -1 0
c p weight -131 1 0
c p weight 131 -1 0
c p weight 135 6.12323399573676603586882014729198302312846062338790031898128063403419218957424163818359375E-17 0
c p weight -135 1 0
c p weight 136 1 0
c p weight -136 1 0
c p weight -133 1 0
c p weight 133 -1 0
c p weight -137 1 0
c p weight 137 -1 0
c p weight -139 1 0
c p weight 139 -1 0
c p weight 143 6.12323399573676603586882014729198302312846062338790031898128063403419218957424163818359375E-17 0
c p weight -143 1 0
c p weight 144 1 0
c p weight -144 1 0
c p weight -141 1 0
c p weight 141 -1 0
c p weight -145 1 0
c p weight 145 -1 0
c p weight -147 1 0
c p weight 147 -1 0
c p weight 151 6.12323399573676603586882014729198302312846062338790031898128063403419218957424163818359375E-17 0
c p weight -151 1 0
c p weight 152 1 0
c p weight -152 1 0
c p weight -149 1 0
c p weight 149 -1 0
c p weight -153 1 0
c p weight 153 -1 0
c p weight -155 1 0
c p weight 155 -1 0
c p weight -158 1 0
c p weight 158 -1 0
c p weight 162 6.12323399573676603586882014729198302312846062338790031898128063403419218957424163818359375E-17 0
c p weight -162 1 0
c p weight 163 1 0
c p weight -163 1 0
c p weight -160 1 0
c p weight 160 -1 0
c p weight -164 1 0
c p weight 164 -1 0
c p weight -166 1 0
c p weight 166 -1 0
c p weight 170 6.12323399573676603586882014729198302312846062338790031898128063403419218957424163818359375E-17 0
c p weight -170 1 0
c p weight 171 1 0
c p weight -171 1 0
c p weight -168 1 0
c p weight 168 -1 0
c p weight -172 1 0
c p weight 172 -1 0
c p weight -174 1 0
c p weight 174 -1 0
c p weight 178 6.12323399573676603586882014729198302312846062338790031898128063403419218957424163818359375E-17 0
c p weight -178 1 0
c p weight 179 1 0
c p weight -179 1 0
c p weight -176 1 0
c p weight 176 -1 0
c p weight -180 1 0
c p weight 180 -1 0
c p weight -182 1 0
c p weight 182 -1 0
c p weight -185 1 0
c p weight 185 -1 0
c p weight 189 6.12323399573676603586882014729198302312846062338790031898128063403419218957424163818359375E-17 0
c p weight -189 1 0
c p weight 190 1 0
c p weight -190 1 0
c p weight -187 1 0
c p weight 187 -1 0
c p weight -191 1 0
c p weight 191 -1 0
c p weight -193 1 0
c p weight 193 -1 0
c p weight 197 6.12323399573676603586882014729198302312846062338790031898128063403419218957424163818359375E-17 0
c p weight -197 1 0
c p weight 198 1 0
c p weight -198 1 0
c p weight -195 1 0
c p weight 195 -1 0
c p weight -199 1 0
c p weight 199 -1 0
c p weight -201 1 0
c p weight 201 -1 0
c p weight 205 6.12323399573676603586882014729198302312846062338790031898128063403419218957424163818359375E-17 0
c p weight -205 1 0
c p weight 206 1 0
c p weight -206 1 0
c p weight -203 1 0
c p weight 203 -1 0
c p weight -207 1 0
c p weight 207 -1 0
c p weight -209 1 0
c p weight 209 -1 0
c p weight -212 1 0
c p weight 212 -1 0
c p weight 216 6.12323399573676603586882014729198302312846062338790031898128063403419218957424163818359375E-17 0
c p weight -216 1 0
c p weight 217 1 0
c p weight -217 1 0
c p weight -214 1 0
c p weight 214 -1 0
c p weight -218 1 0
c p weight 218 -1 0
c p weight -220 1 0
c p weight 220 -1 0
c p weight 224 6.12323399573676603586882014729198302312846062338790031898128063403419218957424163818359375E-17 0
c p weight -224 1 0
c p weight 225 1 0
c p weight -225 1 0
c p weight -222 1 0
c p weight 222 -1 0
c p weight -226 1 0
c p weight 226 -1 0
c p weight -228 1 0
c p weight 228 -1 0
c p weight 232 6.12323399573676603586882014729198302312846062338790031898128063403419218957424163818359375E-17 0
c p weight -232 1 0
c p weight 233 1 0
c p weight -233 1 0
c p weight -230 1 0
c p weight 230 -1 0
c p weight -234 1 0
c p weight 234 -1 0
c p weight -236 1 0
c p weight 236 -1 0
c p weight -239 1 0
c p weight 239 -1 0
c p weight 243 6.12323399573676603586882014729198302312846062338790031898128063403419218957424163818359375E-17 0
c p weight -243 1 0
c p weight 244 1 0
c p weight -244 1 0
c p weight -241 1 0
c p weight 241 -1 0
c p weight -245 1 0
c p weight 245 -1 0
c p weight -247 1 0
c p weight 247 -1 0
c p weight 251 6.12323399573676603586882014729198302312846062338790031898128063403419218957424163818359375E-17 0
c p weight -251 1 0
c p weight 252 1 0
c p weight -252 1 0
c p weight -249 1 0
c p weight 249 -1 0
c p weight -253 1 0
c p weight 253 -1 0
c p weight -255 1 0
c p weight 255 -1 0
c p weight 259 6.12323399573676603586882014729198302312846062338790031898128063403419218957424163818359375E-17 0
c p weight -259 1 0
c p weight 260 1 0
c p weight -260 1 0
c p weight -257 1 0
c p weight 257 -1 0
c p weight -261 1 0
c p weight 261 -1 0
c p weight -263 1 0
c p weight 263 -1 0
c p weight -266 1 0
c p weight 266 -1 0
c p weight 270 6.12323399573676603586882014729198302312846062338790031898128063403419218957424163818359375E-17 0
c p weight -270 1 0
c p weight 271 1 0
c p weight -271 1 0
c p weight -268 1 0
c p weight 268 -1 0
c p weight -272 1 0
c p weight 272 -1 0
c p weight -274 1 0
c p weight 274 -1 0
c p weight 278 6.12323399573676603586882014729198302312846062338790031898128063403419218957424163818359375E-17 0
c p weight -278 1 0
c p weight 279 1 0
c p weight -279 1 0
c p weight -276 1 0
c p weight 276 -1 0
c p weight -280 1 0
c p weight 280 -1 0
c p weight -282 1 0
c p weight 282 -1 0
c p weight 286 6.12323399573676603586882014729198302312846062338790031898128063403419218957424163818359375E-17 0
c p weight -286 1 0
c p weight 287 1 0
c p weight -287 1 0
c p weight -284 1 0
c p weight 284 -1 0
c p weight -288 1 0
c p weight 288 -1 0
c p weight -290 1 0
c p weight 290 -1 0
c p weight -293 1 0
c p weight 293 -1 0
c p weight 297 6.12323399573676603586882014729198302312846062338790031898128063403419218957424163818359375E-17 0
c p weight -297 1 0
c p weight 298 1 0
c p weight -298 1 0
c p weight -295 1 0
c p weight 295 -1 0
c p weight -299 1 0
c p weight 299 -1 0
c p weight -301 1 0
c p weight 301 -1 0
c p weight 305 6.12323399573676603586882014729198302312846062338790031898128063403419218957424163818359375E-17 0
c p weight -305 1 0
c p weight 306 1 0
c p weight -306 1 0
c p weight -303 1 0
c p weight 303 -1 0
c p weight -307 1 0
c p weight 307 -1 0
c p weight -309 1 0
c p weight 309 -1 0
c p weight -312 1 0
c p weight 312 -1 0
c p weight 316 6.12323399573676603586882014729198302312846062338790031898128063403419218957424163818359375E-17 0
c p weight -316 1 0
c p weight 317 1 0
c p weight -317 1 0
c p weight -314 1 0
c p weight 314 -1 0
c p weight -318 1 0
c p weight 318 -1 0
c p weight 320 0.5 0
c p weight -320 1 0
320 0
-21 0
-19 0
-17 0
-15 0
-13 0
-11 0
-9 0
-7 0
-5 0
-3 0
-1 0
-23 1 0
-23 2 0
23 -1 -2 0
24 1 -2 0
24 -1 2 0
-24 1 2 0
-24 -1 -2 0
-25 26 0
-25 24 0
-25 -1 0
25 -26 1 -24 0
26 -1 24 0
-26 1 24 0
-27 24 0
26 -27 -1 0
-26 -27 1 0
26 27 1 -24 0
-26 27 -1 -24 0
-28 24 0
26 -28 1 0
-26 -28 -1 0
26 28 -1 -24 0
-26 28 1 -24 0
-29 26 0
-29 24 0
29 -26 -24 0
30 26 -24 0
30 -26 24 0
-30 26 24 0
-30 -26 -24 0
-31 3 0
-31 4 0
31 -3 -4 0
32 3 -4 0
32 -3 4 0
-32 3 4 0
-32 -3 -4 0
-33 34 0
-33 32 0
-33 -3 0
33 -34 3 -32 0
34 -3 32 0
-34 3 32 0
-35 32 0
34 -35 -3 0
-34 -35 3 0
34 35 3 -32 0
-34 35 -3 -32 0
-36 32 0
34 -36 3 0
-34 -36 -3 0
34 36 -3 -32 0
-34 36 3 -32 0
-37 34 0
-37 32 0
37 -34 -32 0
38 34 -32 0
38 -34 32 0
-38 34 32 0
-38 -34 -32 0
-39 34 0
-39 38 0
39 -34 -38 0
40 34 -38 0
40 -34 38 0
-40 34 38 0
-40 -34 -38 0
-41 42 0
-41 40 0
-41 -34 0
41 -42 34 -40 0
42 -34 40 0
-42 34 40 0
-43 40 0
42 -43 -34 0
-42 -43 34 0
42 43 34 -40 0
-42 43 -34 -40 0
-44 40 0
42 -44 34 0
-42 -44 -34 0
42 44 -34 -40 0
-42 44 34 -40 0
-45 42 0
-45 40 0
45 -42 -40 0
46 42 -40 0
46 -42 40 0
-46 42 40 0
-46 -42 -40 0
-47 26 0
-47 46 0
-47 42 -30 0
-47 -42 30 0
47 -26 42 30 -46 0
47 -26 -42 -30 -46 0
49 26 -42 0
49 -26 42 0
-49 26 42 0
-49 -26 -42 0
48 30 -46 0
48 -30 46 0
-48 30 46 0
-48 -30 -46 0
-50 49 0
-50 46 0
50 -49 -46 0
51 49 -46 0
51 -49 46 0
-51 49 46 0
-51 -49 -46 0
-52 53 0
-52 51 0
-52 -49 0
52 -53 49 -51 0
53 -49 51 0
-53 49 51 0
-54 51 0
53 -54 -49 0
-53 -54 49 0
53 54 49 -51 0
-53 54 -49 -51 0
-55 51 0
53 -55 49 0
-53 -55 -49 0
53 55 -49 -51 0
-53 55 49 -51 0
-56 53 0
-56 51 0
56 -53 -51 0
57 53 -51 0
57 -53 51 0
-57 53 51 0
-57 -53 -51 0
-58 5 0
-58 6 0
58 -5 -6 0
59 5 -6 0
59 -5 6 0
-59 5 6 0
-59 -5 -6 0
-60 61 0
-60 59 0
-60 -5 0
60 -61 5 -59 0
61 -5 59 0
-61 5 59 0
-62 59 0
61 -62 -5 0
-61 -62 5 0
61 62 5 -59 0
-61 62 -5 -59 0
-63 59 0
61 -63 5 0
-61 -63 -5 0
61 63 -5 -59 0
-61 63 5 -59 0
-64 61 0
-64 59 0
64 -61 -59 0
65 61 -59 0
65 -61 59 0
-65 61 59 0
-65 -61 -59 0
-66 61 0
-66 65 0
66 -61 -65 0
67 61 -65 0
67 -61 65 0
-67 61 65 0
-67 -61 -65 0
-68 69 0
-68 67 0
-68 -61 0
68 -69 61 -67 0
69 -61 67 0
-69 61 67 0
-70 67 0
69 -70 -61 0
-69 -70 61 0
69 70 61 -67 0
-69 70 -61 -67 0
-71 67 0
69 -71 61 0
-69 -71 -61 0
69 71 -61 -67 0
-69 71 61 -67 0
-72 69 0
-72 67 0
72 -69 -67 0
73 69 -67 0
73 -69 67 0
-73 69 67 0
-73 -69 -67 0
-74 26 0
-74 73 0
-74 69 -48 0
-74 -69 48 0
74 -26 69 48 -73 0
74 -26 -69 -48 -73 0
76 26 -69 0
76 -26 69 0
-76 26 69 0
-76 -26 -69 0
75 48 -73 0
75 -48 73 0
-75 48 73 0
-75 -48 -73 0
-77 76 0
-77 73 0
77 -76 -73 0
78 76 -73 0
78 -76 73 0
-78 76 73 0
-78 -76 -73 0
-79 80 0
-79 78 0
-79 -76 0
79 -80 76 -78 0
80 -76 78 0
-80 76 78 0
-81 78 0
80 -81 -76 0
-80 -81 76 0
80 81 76 -78 0
-80 81 -76 -78 0
-82 78 0
80 -82 76 0
-80 -82 -76 0
80 82 -76 -78 0
-80 82 76 -78 0
-83 80 0
-83 78 0
83 -80 -78 0
84 80 -78 0
84 -80 78 0
-84 80 78 0
-84 -80 -78 0
-85 7 0
-85 8 0
85 -7 -8 0
86 7 -8 0
86 -7 8 0
-86 7 8 0
-86 -7 -8 0
-87 88 0
-87 86 0
-87 -7 0
87 -88 7 -86 0
88 -7 86 0
-88 7 86 0
-89 86 0
88 -89 -7 0
-88 -89 7 0
88 89 7 -86 0
-88 89 -7 -86 0
-90 86 0
88 -90 7 0
-88 -90 -7 0
88 90 -7 -86 0
-88 90 7 -86 0
-91 88 0
-91 86 0
91 -88 -86 0
92 88 -86 0
92 -88 86 0
-92 88 86 0
-92 -88 -86 0
-93 9 0
-93 10 0
93 -9 -10 0
94 9 -10 0
94 -9 10 0
-94 9 10 0
-94 -9 -10 0
-95 96 0
-95 94 0
-95 -9 0
95 -96 9 -94 0
96 -9 94 0
-96 9 94 0
-97 94 0
96 -97 -9 0
-96 -97 9 0
96 97 9 -94 0
-96 97 -9 -94 0
-98 94 0
96 -98 9 0
-96 -98 -9 0
96 98 -9 -94 0
-96 98 9 -94 0
-99 96 0
-99 94 0
99 -96 -94 0
100 96 -94 0
100 -96 94 0
-100 96 94 0
-100 -96 -94 0
-101 96 0
-101 100 0
101 -96 -100 0
102 96 -100 0
102 -96 100 0
-102 96 100 0
-102 -96 -100 0
-103 104 0
-103 102 0
-103 -96 0
103 -104 96 -102 0
104 -96 102 0
-104 96 102 0
-105 102 0
104 -105 -96 0
-104 -105 96 0
104 105 96 -102 0
-104 105 -96 -102 0
-106 102 0
104 -106 96 0
-104 -106 -96 0
104 106 -96 -102 0
-104 106 96 -102 0
-107 104 0
-107 102 0
107 -104 -102 0
108 104 -102 0
108 -104 102 0
-108 104 102 0
-108 -104 -102 0
-109 53 0
-109 108 0
-109 104 -57 0
-109 -104 57 0
109 -53 104 57 -108 0
109 -53 -104 -57 -108 0
111 53 -104 0
111 -53 104 0
-111 53 104 0
-111 -53 -104 0
110 57 -108 0
110 -57 108 0
-110 57 108 0
-110 -57 -108 0
-112 111 0
-112 108 0
112 -111 -108 0
113 111 -108 0
113 -111 108 0
-113 111 108 0
-113 -111 -108 0
-114 115 0
-114 113 0
-114 -111 0
114 -115 111 -113 0
115 -111 113 0
-115 111 113 0
-116 113 0
115 -116 -111 0
-115 -116 111 0
115 116 111 -113 0
-115 116 -111 -113 0
-117 113 0
115 -117 111 0
-115 -117 -111 0
115 117 -111 -113 0
-115 117 111 -113 0
-118 115 0
-118 113 0
118 -115 -113 0
119 115 -113 0
119 -115 113 0
-119 115 113 0
-119 -115 -113 0
-120 115 0
-120 119 0
120 -115 -119 0
121 115 -119 0
121 -115 119 0
-121 115 119 0
-121 -115 -119 0
-122 123 0
-122 121 0
-122 -115 0
122 -123 115 -121 0
123 -115 121 0
-123 115 121 0
-124 121 0
123 -124 -115 0
-123 -124 115 0
123 124 115 -121 0
-123 124 -115 -121 0
-125 121 0
123 -125 115 0
-123 -125 -115 0
123 125 -115 -121 0
-123 125 115 -121 0
-126 123 0
-126 121 0
126 -123 -121 0
127 123 -121 0
127 -123 121 0
-127 123 121 0
-127 -123 -121 0
-128 88 0
-128 127 0
-128 123 -92 0
-128 -123 92 0
128 -88 123 92 -127 0
128 -88 -123 -92 -127 0
130 88 -123 0
130 -88 123 0
-130 88 123 0
-130 -88 -123 0
129 92 -127 0
129 -92 127 0
-129 92 127 0
-129 -92 -127 0
-131 130 0
-131 127 0
131 -130 -127 0
132 130 -127 0
132 -130 127 0
-132 130 127 0
-132 -130 -127 0
-133 134 0
-133 132 0
-133 -130 0
133 -134 130 -132 0
134 -130 132 0
-134 130 132 0
-135 132 0
134 -135 -130 0
-134 -135 130 0
134 135 130 -132 0
-134 135 -130 -132 0
-136 132 0
134 -136 130 0
-134 -136 -130 0
134 136 -130 -132 0
-134 136 130 -132 0
-137 134 0
-137 132 0
137 -134 -132 0
138 134 -132 0
138 -134 132 0
-138 134 132 0
-138 -134 -132 0
-139 11 0
-139 12 0
139 -11 -12 0
140 11 -12 0
140 -11 12 0
-140 11 12 0
-140 -11 -12 0
-141 142 0
-141 140 0
-141 -11 0
141 -142 11 -140 0
142 -11 140 0
-142 11 140 0
-143 140 0
142 -143 -11 0
-142 -143 11 0
142 143 11 -140 0
-142 143 -11 -140 0
-144 140 0
142 -144 11 0
-142 -144 -11 0
142 144 -11 -140 0
-142 144 11 -140 0
-145 142 0
-145 140 0
145 -142 -140 0
146 142 -140 0
146 -142 140 0
-146 142 140 0
-146 -142 -140 0
-147 142 0
-147 146 0
147 -142 -146 0
148 142 -146 0
148 -142 146 0
-148 142 146 0
-148 -142 -146 0
-149 150 0
-149 148 0
-149 -142 0
149 -150 142 -148 0
150 -142 148 0
-150 142 148 0
-151 148 0
150 -151 -142 0
-150 -151 142 0
150 151 142 -148 0
-150 151 -142 -148 0
-152 148 0
150 -152 142 0
-150 -152 -142 0
150 152 -142 -148 0
-150 152 142 -148 0
-153 150 0
-153 148 0
153 -150 -148 0
154 150 -148 0
154 -150 148 0
-154 150 148 0
-154 -150 -148 0
-155 80 0
-155 154 0
-155 150 -84 0
-155 -150 84 0
155 -80 150 84 -154 0
155 -80 -150 -84 -154 0
157 80 -150 0
157 -80 150 0
-157 80 150 0
-157 -80 -150 0
156 84 -154 0
156 -84 154 0
-156 84 154 0
-156 -84 -154 0
-158 157 0
-158 154 0
158 -157 -154 0
159 157 -154 0
159 -157 154 0
-159 157 154 0
-159 -157 -154 0
-160 161 0
-160 159 0
-160 -157 0
160 -161 157 -159 0
161 -157 159 0
-161 157 159 0
-162 159 0
161 -162 -157 0
-161 -162 157 0
161 162 157 -159 0
-161 162 -157 -159 0
-163 159 0
161 -163 157 0
-161 -163 -157 0
161 163 -157 -159 0
-161 163 157 -159 0
-164 161 0
-164 159 0
164 -161 -159 0
165 161 -159 0
165 -161 159 0
-165 161 159 0
-165 -161 -159 0
-166 13 0
-166 14 0
166 -13 -14 0
167 13 -14 0
167 -13 14 0
-167 13 14 0
-167 -13 -14 0
-168 169 0
-168 167 0
-168 -13 0
168 -169 13 -167 0
169 -13 167 0
-169 13 167 0
-170 167 0
169 -170 -13 0
-169 -170 13 0
169 170 13 -167 0
-169 170 -13 -167 0
-171 167 0
169 -171 13 0
-169 -171 -13 0
169 171 -13 -167 0
-169 171 13 -167 0
-172 169 0
-172 167 0
172 -169 -167 0
173 169 -167 0
173 -169 167 0
-173 169 167 0
-173 -169 -167 0
-174 169 0
-174 173 0
174 -169 -173 0
175 169 -173 0
175 -169 173 0
-175 169 173 0
-175 -169 -173 0
-176 177 0
-176 175 0
-176 -169 0
176 -177 169 -175 0
177 -169 175 0
-177 169 175 0
-178 175 0
177 -178 -169 0
-177 -178 169 0
177 178 169 -175 0
-177 178 -169 -175 0
-179 175 0
177 -179 169 0
-177 -179 -169 0
177 179 -169 -175 0
-177 179 169 -175 0
-180 177 0
-180 175 0
180 -177 -175 0
181 177 -175 0
181 -177 175 0
-181 177 175 0
-181 -177 -175 0
-182 88 0
-182 181 0
-182 177 -129 0
-182 -177 129 0
182 -88 177 129 -181 0
182 -88 -177 -129 -181 0
184 88 -177 0
184 -88 177 0
-184 88 177 0
-184 -88 -177 0
183 129 -181 0
183 -129 181 0
-183 129 181 0
-183 -129 -181 0
-185 184 0
-185 181 0
185 -184 -181 0
186 184 -181 0
186 -184 181 0
-186 184 181 0
-186 -184 -181 0
-187 188 0
-187 186 0
-187 -184 0
187 -188 184 -186 0
188 -184 186 0
-188 184 186 0
-189 186 0
188 -189 -184 0
-188 -189 184 0
188 189 184 -186 0
-188 189 -184 -186 0
-190 186 0
188 -190 184 0
-188 -190 -184 0
188 190 -184 -186 0
-188 190 184 -186 0
-191 188 0
-191 186 0
191 -188 -186 0
192 188 -186 0
192 -188 186 0
-192 188 186 0
-192 -188 -186 0
-193 15 0
-193 16 0
193 -15 -16 0
194 15 -16 0
194 -15 16 0
-194 15 16 0
-194 -15 -16 0
-195 196 0
-195 194 0
-195 -15 0
195 -196 15 -194 0
196 -15 194 0
-196 15 194 0
-197 194 0
196 -197 -15 0
-196 -197 15 0
196 197 15 -194 0
-196 197 -15 -194 0
-198 194 0
196 -198 15 0
-196 -198 -15 0
196 198 -15 -194 0
-196 198 15 -194 0
-199 196 0
-199 194 0
199 -196 -194 0
200 196 -194 0
200 -196 194 0
-200 196 194 0
-200 -196 -194 0
-201 196 0
-201 200 0
201 -196 -200 0
202 196 -200 0
202 -196 200 0
-202 196 200 0
-202 -196 -200 0
-203 204 0
-203 202 0
-203 -196 0
203 -204 196 -202 0
204 -196 202 0
-204 196 202 0
-205 202 0
204 -205 -196 0
-204 -205 196 0
204 205 196 -202 0
-204 205 -196 -202 0
-206 202 0
204 -206 196 0
-204 -206 -196 0
204 206 -196 -202 0
-204 206 196 -202 0
-207 204 0
-207 202 0
207 -204 -202 0
208 204 -202 0
208 -204 202 0
-208 204 202 0
-208 -204 -202 0
-209 188 0
-209 208 0
-209 204 -192 0
-209 -204 192 0
209 -188 204 192 -208 0
209 -188 -204 -192 -208 0
211 188 -204 0
211 -188 204 0
-211 188 204 0
-211 -188 -204 0
210 192 -208 0
210 -192 208 0
-210 192 208 0
-210 -192 -208 0
-212 211 0
-212 208 0
212 -211 -208 0
213 211 -208 0
213 -211 208 0
-213 211 208 0
-213 -211 -208 0
-214 215 0
-214 213 0
-214 -211 0
214 -215 211 -213 0
215 -211 213 0
-215 211 213 0
-216 213 0
215 -216 -211 0
-215 -216 211 0
215 216 211 -213 0
-215 216 -211 -213 0
-217 213 0
215 -217 211 0
-215 -217 -211 0
215 217 -211 -213 0
-215 217 211 -213 0
-218 215 0
-218 213 0
218 -215 -213 0
219 215 -213 0
219 -215 213 0
-219 215 213 0
-219 -215 -213 0
-220 17 0
-220 18 0
220 -17 -18 0
221 17 -18 0
221 -17 18 0
-221 17 18 0
-221 -17 -18 0
-222 223 0
-222 221 0
-222 -17 0
222 -223 17 -221 0
223 -17 221 0
-223 17 221 0
-224 221 0
223 -224 -17 0
-223 -224 17 0
223 224 17 -221 0
-223 224 -17 -221 0
-225 221 0
223 -225 17 0
-223 -225 -17 0
223 225 -17 -221 0
-223 225 17 -221 0
-226 223 0
-226 221 0
226 -223 -221 0
227 223 -221 0
227 -223 221 0
-227 223 221 0
-227 -223 -221 0
-228 223 0
-228 227 0
228 -223 -227 0
229 223 -227 0
229 -223 227 0
-229 223 227 0
-229 -223 -227 0
-230 231 0
-230 229 0
-230 -223 0
230 -231 223 -229 0
231 -223 229 0
-231 223 229 0
-232 229 0
231 -232 -223 0
-231 -232 223 0
231 232 223 -229 0
-231 232 -223 -229 0
-233 229 0
231 -233 223 0
-231 -233 -223 0
231 233 -223 -229 0
-231 233 223 -229 0
-234 231 0
-234 229 0
234 -231 -229 0
235 231 -229 0
235 -231 229 0
-235 231 229 0
-235 -231 -229 0
-236 161 0
-236 235 0
-236 231 -165 0
-236 -231 165 0
236 -161 231 165 -235 0
236 -161 -231 -165 -235 0
238 161 -231 0
238 -161 231 0
-238 161 231 0
-238 -161 -231 0
237 165 -235 0
237 -165 235 0
-237 165 235 0
-237 -165 -235 0
-239 238 0
-239 235 0
239 -238 -235 0
240 238 -235 0
240 -238 235 0
-240 238 235 0
-240 -238 -235 0
-241 242 0
-241 240 0
-241 -238 0
241 -242 238 -240 0
242 -238 240 0
-242 238 240 0
-243 240 0
242 -243 -238 0
-242 -243 238 0
242 243 238 -240 0
-242 243 -238 -240 0
-244 240 0
242 -244 238 0
-242 -244 -238 0
242 244 -238 -240 0
-242 244 238 -240 0
-245 242 0
-245 240 0
245 -242 -240 0
246 242 -240 0
246 -242 240 0
-246 242 240 0
-246 -242 -240 0
-247 19 0
-247 20 0
247 -19 -20 0
248 19 -20 0
248 -19 20 0
-248 19 20 0
-248 -19 -20 0
-249 250 0
-249 248 0
-249 -19 0
249 -250 19 -248 0
250 -19 248 0
-250 19 248 0
-251 248 0
250 -251 -19 0
-250 -251 19 0
250 251 19 -248 0
-250 251 -19 -248 0
-252 248 0
250 -252 19 0
-250 -252 -19 0
250 252 -19 -248 0
-250 252 19 -248 0
-253 250 0
-253 248 0
253 -250 -248 0
254 250 -248 0
254 -250 248 0
-254 250 248 0
-254 -250 -248 0
-255 250 0
-255 254 0
255 -250 -254 0
256 250 -254 0
256 -250 254 0
-256 250 254 0
-256 -250 -254 0
-257 258 0
-257 256 0
-257 -250 0
257 -258 250 -256 0
258 -250 256 0
-258 250 256 0
-259 256 0
258 -259 -250 0
-258 -259 250 0
258 259 250 -256 0
-258 259 -250 -256 0
-260 256 0
258 -260 250 0
-258 -260 -250 0
258 260 -250 -256 0
-258 260 250 -256 0
-261 258 0
-261 256 0
261 -258 -256 0
262 258 -256 0
262 -258 256 0
-262 258 256 0
-262 -258 -256 0
-263 242 0
-263 262 0
-263 258 -246 0
-263 -258 246 0
263 -242 258 246 -262 0
263 -242 -258 -246 -262 0
265 242 -258 0
265 -242 258 0
-265 242 258 0
-265 -242 -258 0
264 246 -262 0
264 -246 262 0
-264 246 262 0
-264 -246 -262 0
-266 265 0
-266 262 0
266 -265 -262 0
267 265 -262 0
267 -265 262 0
-267 265 262 0
-267 -265 -262 0
-268 269 0
-268 267 0
-268 -265 0
268 -269 265 -267 0
269 -265 267 0
-269 265 267 0
-270 267 0
269 -270 -265 0
-269 -270 265 0
269 270 265 -267 0
-269 270 -265 -267 0
-271 267 0
269 -271 265 0
-269 -271 -265 0
269 271 -265 -267 0
-269 271 265 -267 0
-272 269 0
-272 267 0
272 -269 -267 0
273 269 -267 0
273 -269 267 0
-273 269 267 0
-273 -269 -267 0
-274 21 0
-274 22 0
274 -21 -22 0
275 21 -22 0
275 -21 22 0
-275 21 22 0
-275 -21 -22 0
-276 277 0
-276 275 0
-276 -21 0
276 -277 21 -275 0
277 -21 275 0
-277 21 275 0
-278 275 0
277 -278 -21 0
-277 -278 21 0
277 278 21 -275 0
-277 278 -21 -275 0
-279 275 0
277 -279 21 0
-277 -279 -21 0
277 279 -21 -275 0
-277 279 21 -275 0
-280 277 0
-280 275 0
280 -277 -275 0
281 277 -275 0
281 -277 275 0
-281 277 275 0
-281 -277 -275 0
-282 277 0
-282 281 0
282 -277 -281 0
283 277 -281 0
283 -277 281 0
-283 277 281 0
-283 -277 -281 0
-284 285 0
-284 283 0
-284 -277 0
284 -285 277 -283 0
285 -277 283 0
-285 277 283 0
-286 283 0
285 -286 -277 0
-285 -286 277 0
285 286 277 -283 0
-285 286 -277 -283 0
-287 283 0
285 -287 277 0
-285 -287 -277 0
285 287 -277 -283 0
-285 287 277 -283 0
-288 285 0
-288 283 0
288 -285 -283 0
289 285 -283 0
289 -285 283 0
-289 285 283 0
-289 -285 -283 0
-290 215 0
-290 289 0
-290 285 -219 0
-290 -285 219 0
290 -215 285 219 -289 0
290 -215 -285 -219 -289 0
292 215 -285 0
292 -215 285 0
-292 215 285 0
-292 -215 -285 0
291 219 -289 0
291 -219 289 0
-291 219 289 0
-291 -219 -289 0
-293 292 0
-293 289 0
293 -292 -289 0
294 292 -289 0
294 -292 289 0
-294 292 289 0
-294 -292 -289 0
-295 296 0
-295 294 0
-295 -292 0
295 -296 292 -294 0
296 -292 294 0
-296 292 294 0
-297 294 0
296 -297 -292 0
-296 -297 292 0
296 297 292 -294 0
-296 297 -292 -294 0
-298 294 0
296 -298 292 0
-296 -298 -292 0
296 298 -292 -294 0
-296 298 292 -294 0
-299 296 0
-299 294 0
299 -296 -294 0
300 296 -294 0
300 -296 294 0
-300 296 294 0
-300 -296 -294 0
-301 296 0
-301 300 0
301 -296 -300 0
302 296 -300 0
302 -296 300 0
-302 296 300 0
-302 -296 -300 0
-303 304 0
-303 302 0
-303 -296 0
303 -304 296 -302 0
304 -296 302 0
-304 296 302 0
-305 302 0
304 -305 -296 0
-304 -305 296 0
304 305 296 -302 0
-304 305 -296 -302 0
-306 302 0
304 -306 296 0
-304 -306 -296 0
304 306 -296 -302 0
-304 306 296 -302 0
-307 304 0
-307 302 0
307 -304 -302 0
308 304 -302 0
308 -304 302 0
-308 304 302 0
-308 -304 -302 0
-309 269 0
-309 308 0
-309 304 -273 0
-309 -304 273 0
309 -269 304 273 -308 0
309 -269 -304 -273 -308 0
311 269 -304 0
311 -269 304 0
-311 269 304 0
-311 -269 -304 0
310 273 -308 0
310 -273 308 0
-310 273 308 0
-310 -273 -308 0
-312 311 0
-312 308 0
312 -311 -308 0
313 311 -308 0
313 -311 308 0
-313 311 308 0
-313 -311 -308 0
-314 315 0
-314 313 0
-314 -311 0
314 -315 311 -313 0
315 -311 313 0
-315 311 313 0
-316 313 0
315 -316 -311 0
-315 -316 311 0
315 316 311 -313 0
-315 316 -311 -313 0
-317 313 0
315 -317 311 0
-315 -317 -311 0
315 317 -311 -313 0
-315 317 311 -313 0
-318 315 0
-318 313 0
318 -315 -313 0
319 315 -313 0
319 -315 313 0
-319 315 313 0
-319 -315 -313 0
-26 0
-53 0
-110 0
-80 0
-156 0
-88 0
-183 0
-134 0
-138 0
-161 0
-237 0
-188 0
-210 0
-215 0
-291 0
-242 0
-264 0
-269 0
-310 0
-315 0
-319 0
